
Gurobi 9.5.0 (linux64) logging started Sat Nov  4 11:36:40 2023

Set parameter LogFile to value "/lustre1/scratch/348/vsc34888/JointResearch/05.Models/06.Benchmarking/E.Representative_days_based_on_Line_Benefits_OptModel/RTS24_ByStages_nc100/openStarNet_RTS24_ByStages_nc100.log"
Set parameter Method to value 2
Set parameter MIPFocus to value 1
Set parameter Presolve to value 2
Set parameter RINS to value 100
Set parameter MIPGap to value 0.01
Set parameter Threads to value 36
Set parameter TimeLimit to value 604800
Set parameter IterationLimit to value 760000000
Gurobi Optimizer version 9.5.0 build v9.5.0rc5 (linux64)
Thread count: 36 physical cores, 36 logical processors, using up to 36 threads
Optimize a model with 44503 rows, 25188 columns and 121155 nonzeros
Model fingerprint: 0x16e5dbbf
Variable types: 25149 continuous, 39 integer (39 binary)
Coefficient statistics:
  Matrix range     [1e-03, 2e+03]
  Objective range  [1e+00, 1e+00]
  Bounds range     [4e-04, 3e+00]
  RHS range        [4e-04, 3e+00]
Presolve removed 21703 rows and 10667 columns
Presolve time: 0.24s
Presolved: 22800 rows, 14521 columns, 79182 nonzeros
Variable types: 14482 continuous, 39 integer (39 binary)
Found heuristic solution: objective 145.5492581
Root relaxation presolved: 22800 rows, 14521 columns, 79182 nonzeros

Root barrier log...

Ordering time: 0.01s

Barrier statistics:
 Dense cols : 39
 AA' NZ     : 1.687e+05
 Factor NZ  : 5.456e+05 (roughly 20 MB of memory)
 Factor Ops : 1.632e+07 (less than 1 second per iteration)
 Threads    : 36

                  Objective                Residual
Iter       Primal          Dual         Primal    Dual     Compl     Time
   0   6.23959626e+05 -1.57188570e+08  4.61e+00 4.02e+02  1.00e+04     1s
   1   7.12562032e+04 -4.29635083e+07  4.77e-01 1.23e-08  1.33e+03     1s
   2   1.48449744e+04 -5.01191445e+06  1.06e-02 2.65e-09  1.11e+02     1s
   3   7.60523506e+03 -3.63804463e+05  6.46e-13 1.90e-10  8.07e+00     1s
   4   1.71039975e+03 -4.86740801e+04  6.82e-13 2.35e-11  1.09e+00     1s
   5   7.96673210e+02 -1.30800435e+04  4.10e-13 5.99e-12  3.01e-01     1s
   6   4.81694774e+02 -4.23628591e+03  2.90e-13 1.83e-12  1.02e-01     1s
   7   3.11322771e+02 -1.62726936e+03  2.13e-13 1.82e-12  4.21e-02     1s
   8   2.04220975e+02 -5.66333658e+02  2.84e-13 1.82e-12  1.67e-02     1s
   9   1.52821840e+02 -1.87969976e+02  2.60e-13 1.82e-12  7.40e-03     1s
  10   1.31237669e+02  2.06563241e+01  3.32e-13 1.82e-12  2.40e-03     1s
  11   1.11564581e+02  6.50235954e+01  5.81e-13 1.82e-12  1.01e-03     1s
  12   1.03366142e+02  7.62847663e+01  9.69e-12 1.82e-12  5.88e-04     1s
  13   1.00888150e+02  8.56376041e+01  6.95e-12 1.82e-12  3.31e-04     1s
  14   9.77875799e+01  8.61420189e+01  5.59e-12 1.82e-12  2.53e-04     1s
  15   9.67693583e+01  8.71040203e+01  5.44e-12 1.82e-12  2.10e-04     1s
  16   9.47239961e+01  9.00448175e+01  5.17e-12 1.82e-12  1.02e-04     1s
  17   9.28903593e+01  9.05193927e+01  5.60e-12 1.82e-12  5.15e-05     1s
  18   9.25690289e+01  9.07270222e+01  1.08e-11 1.82e-12  4.00e-05     1s
  19   9.21042340e+01  9.10949392e+01  1.76e-11 1.82e-12  2.19e-05     1s
  20   9.18940439e+01  9.13398605e+01  9.85e-12 1.82e-12  1.20e-05     1s
  21   9.17518548e+01  9.15744779e+01  1.61e-11 1.82e-12  3.85e-06     1s
  22   9.16560832e+01  9.15954964e+01  2.06e-10 1.82e-12  1.32e-06     1s
  23   9.16375025e+01  9.16028269e+01  1.25e-10 1.82e-12  7.53e-07     1s
  24   9.16262027e+01  9.16088938e+01  2.31e-10 1.82e-12  3.76e-07     1s
  25   9.16204916e+01  9.16152849e+01  7.58e-10 1.82e-12  1.13e-07     1s
  26   9.16184711e+01  9.16157411e+01  4.67e-10 1.82e-12  5.93e-08     1s
  27   9.16170250e+01  9.16159376e+01  3.22e-10 1.82e-12  2.36e-08     1s
  28   9.16161185e+01  9.16159903e+01  8.91e-10 2.73e-12  2.79e-09     1s
  29   9.16160507e+01  9.16160493e+01  3.89e-10 1.82e-12  3.05e-11     1s
  30   9.16160501e+01  9.16160501e+01  7.08e-10 1.82e-12  1.22e-15     1s

Barrier solved model in 30 iterations and 0.86 seconds (0.90 work units)
Optimal objective 9.16160501e+01


Root relaxation: objective 9.161605e+01, 1822 iterations, 0.53 seconds (0.43 work units)

    Nodes    |    Current Node    |     Objective Bounds      |     Work
 Expl Unexpl |  Obj  Depth IntInf | Incumbent    BestBd   Gap | It/Node Time

     0     0   91.61605    0   11  145.54926   91.61605  37.1%     -    1s
H    0     0                     116.9633229   91.61605  21.7%     -    1s
     0     0   95.35633    0    9  116.96332   95.35633  18.5%     -    1s
H    0     0                     102.7763010   95.35633  7.22%     -    2s
     0     0   95.56633    0   11  102.77630   95.56633  7.02%     -    2s
     0     0   95.59906    0   11  102.77630   95.59906  6.98%     -    2s
     0     0   95.59906    0   11  102.77630   95.59906  6.98%     -    2s
     0     0   95.70586    0    9  102.77630   95.70586  6.88%     -    3s
     0     0   95.78315    0   10  102.77630   95.78315  6.80%     -    3s
     0     0   95.80812    0    9  102.77630   95.80812  6.78%     -    3s
     0     0   95.81252    0   10  102.77630   95.81252  6.78%     -    3s
     0     0   95.81341    0   10  102.77630   95.81341  6.77%     -    3s
     0     0   95.81345    0   10  102.77630   95.81345  6.77%     -    3s
     0     0   95.82076    0   11  102.77630   95.82076  6.77%     -    4s
     0     0   95.82132    0   11  102.77630   95.82132  6.77%     -    4s
     0     0   95.82157    0   11  102.77630   95.82157  6.77%     -    4s
     0     0   95.82235    0   11  102.77630   95.82235  6.77%     -    5s
     0     2   95.82235    0   11  102.77630   95.82235  6.77%     -   11s
   108    52  100.35213    8    4  102.77630   99.59772  3.09%   351   26s
   144    70  100.35966    9    5  102.77630   99.85346  2.84%   306   38s
H  152    70                     102.7763009   99.85346  2.84%   307   38s
H  246    72                     102.7763009   99.85346  2.84%   289   45s

Cutting planes:
  Gomory: 4
  Implied bound: 31
  MIR: 774
  Relax-and-lift: 2

Explored 578 nodes (127136 simplex iterations) in 46.40 seconds (67.60 work units)
Thread count was 36 (of 36 available processors)

Solution count 3: 102.776 116.963 145.549 

Optimal solution found (tolerance 1.00e-02)
Best objective 1.027763008614e+02, best bound 1.017593896449e+02, gap 0.9894%

Gurobi 9.5.0 (linux64) logging started Sat Nov  4 11:37:32 2023

Set parameter LogFile to value "/lustre1/scratch/348/vsc34888/JointResearch/05.Models/06.Benchmarking/E.Representative_days_based_on_Line_Benefits_OptModel/RTS24_ByStages_nc100/openStarNet_RTS24_ByStages_nc100.log"
Set parameter Method to value 2
Set parameter MIPFocus to value 1
Set parameter Presolve to value 2
Set parameter RINS to value 100
Set parameter MIPGap to value 0.01
Set parameter Threads to value 36
Set parameter TimeLimit to value 604800
Set parameter IterationLimit to value 760000000
No parameters matching 'relax_integrality' found
Gurobi Optimizer version 9.5.0 build v9.5.0rc5 (linux64)
Thread count: 36 physical cores, 36 logical processors, using up to 36 threads
Optimize a model with 44503 rows, 25149 columns and 105516 nonzeros
Model fingerprint: 0x44314816
Coefficient statistics:
  Matrix range     [1e-03, 2e+03]
  Objective range  [1e+00, 1e+00]
  Bounds range     [4e-04, 3e+00]
  RHS range        [4e-04, 2e+01]
Presolve removed 35305 rows and 11771 columns
Presolve time: 0.05s
Presolved: 9198 rows, 13578 columns, 33474 nonzeros

Ordering time: 0.00s

Barrier statistics:
 AA' NZ     : 2.387e+04
 Factor NZ  : 1.002e+05 (roughly 8 MB of memory)
 Factor Ops : 1.497e+06 (less than 1 second per iteration)
 Threads    : 36

                  Objective                Residual
Iter       Primal          Dual         Primal    Dual     Compl     Time
   0   9.54352726e+05 -1.73423772e+08  1.65e+01 8.87e+01  1.73e+04     0s
   1   1.15954067e+05 -2.91366743e+07  1.68e+00 4.09e-12  1.88e+03     0s
   2   2.60645021e+04 -3.78695531e+06  1.10e-01 2.70e-12  1.80e+02     0s
   3   1.12463676e+04 -6.92571698e+05  5.86e-03 1.84e-12  3.03e+01     0s
   4   4.09299037e+03 -1.11479670e+05  2.33e-04 9.09e-13  4.95e+00     0s
   5   1.59634001e+03 -2.12506325e+04  4.88e-05 9.09e-13  9.78e-01     0s
   6   6.49927028e+02 -5.51009386e+03  6.31e-06 9.09e-13  2.64e-01     0s
   7   3.74318143e+02 -1.67728689e+03  2.06e-06 9.09e-13  8.78e-02     0s
   8   2.25678884e+02 -6.12754050e+02  7.99e-07 9.09e-13  3.59e-02     0s
   9   1.40123692e+02 -1.50026134e+02  1.83e-07 4.55e-13  1.24e-02     0s
  10   1.09006916e+02  6.48095167e+01  6.68e-09 4.55e-13  1.89e-03     0s
  11   1.05078260e+02  8.95333321e+01  1.48e-09 4.55e-13  6.66e-04     0s
  12   1.03908446e+02  9.78662705e+01  5.75e-10 9.09e-13  2.59e-04     0s
  13   1.03309921e+02  1.01021695e+02  2.52e-10 4.55e-13  9.80e-05     0s
  14   1.02978523e+02  1.02356077e+02  9.29e-11 4.55e-13  2.67e-05     0s
  15   1.02844310e+02  1.02605414e+02  2.98e-11 4.55e-13  1.02e-05     0s
  16   1.02792817e+02  1.02771718e+02  6.84e-12 9.09e-13  9.03e-07     0s
  17   1.02776467e+02  1.02776136e+02  2.12e-11 4.55e-13  1.42e-08     0s
  18   1.02776301e+02  1.02776301e+02  2.18e-11 1.82e-12  1.43e-11     0s
  19   1.02776301e+02  1.02776301e+02  8.86e-12 9.09e-13  1.17e-16     0s

Barrier solved model in 19 iterations and 0.18 seconds (0.14 work units)
Optimal objective 1.02776301e+02

Crossover log...

    1000 DPushes remaining with DInf 0.0000000e+00                 0s
       0 DPushes remaining with DInf 0.0000000e+00                 0s

     744 PPushes remaining with PInf 0.0000000e+00                 0s
       0 PPushes remaining with PInf 0.0000000e+00                 0s

  Push phase complete: Pinf 0.0000000e+00, Dinf 8.0998035e-13      0s

Iteration    Objective       Primal Inf.    Dual Inf.      Time
     749    1.0277630e+02   0.000000e+00   0.000000e+00      0s

Use crossover to convert LP symmetric solution to basic solution...
Crossover log...

       0 DPushes remaining with DInf 0.0000000e+00                 0s

     365 PPushes remaining with PInf 0.0000000e+00                 0s
       0 PPushes remaining with PInf 0.0000000e+00                 0s

  Push phase complete: Pinf 0.0000000e+00, Dinf 5.7948611e-13      0s

Iteration    Objective       Primal Inf.    Dual Inf.      Time
    1119    1.0277630e+02   0.000000e+00   0.000000e+00      0s

Solved in 1119 iterations and 0.26 seconds (0.18 work units)
Optimal objective  1.027763010e+02

Gurobi 9.5.0 (linux64) logging started Sat Nov  4 12:05:50 2023

Set parameter LogFile to value "/lustre1/scratch/348/vsc34888/JointResearch/05.Models/06.Benchmarking/E.Representative_days_based_on_Line_Benefits_OptModel/RTS24_ByStages_nc100/openStarNet_RTS24_ByStages_nc100.log"
Set parameter Method to value 2
Set parameter MIPFocus to value 1
Set parameter Presolve to value 2
Set parameter RINS to value 100
Set parameter MIPGap to value 0.01
Set parameter Threads to value 36
Set parameter TimeLimit to value 604800
Set parameter IterationLimit to value 760000000
Gurobi Optimizer version 9.5.0 build v9.5.0rc5 (linux64)
Thread count: 36 physical cores, 36 logical processors, using up to 36 threads
Optimize a model with 44503 rows, 25188 columns and 121155 nonzeros
Model fingerprint: 0xd9ae426b
Variable types: 25149 continuous, 39 integer (39 binary)
Coefficient statistics:
  Matrix range     [1e-03, 2e+03]
  Objective range  [1e+00, 1e+00]
  Bounds range     [4e-04, 3e+00]
  RHS range        [4e-04, 3e+00]
Presolve removed 21703 rows and 10667 columns
Presolve time: 0.24s
Presolved: 22800 rows, 14521 columns, 79182 nonzeros
Variable types: 14482 continuous, 39 integer (39 binary)
Found heuristic solution: objective 145.5492581
Root relaxation presolved: 22800 rows, 14521 columns, 79182 nonzeros

Root barrier log...

Ordering time: 0.01s

Barrier statistics:
 Dense cols : 39
 AA' NZ     : 1.687e+05
 Factor NZ  : 5.653e+05 (roughly 20 MB of memory)
 Factor Ops : 1.780e+07 (less than 1 second per iteration)
 Threads    : 36

                  Objective                Residual
Iter       Primal          Dual         Primal    Dual     Compl     Time
   0   6.23959626e+05 -1.57188570e+08  4.61e+00 4.02e+02  1.00e+04     1s
   1   7.12562032e+04 -4.29635083e+07  4.77e-01 1.15e-08  1.33e+03     1s
   2   1.48449744e+04 -5.01191445e+06  1.06e-02 3.21e-09  1.11e+02     1s
   3   7.60523506e+03 -3.63804463e+05  5.52e-13 2.24e-10  8.07e+00     1s
   4   1.71039975e+03 -4.86740801e+04  6.33e-13 2.29e-11  1.09e+00     1s
   5   7.96673210e+02 -1.30800435e+04  3.45e-13 5.63e-12  3.01e-01     1s
   6   4.81694774e+02 -4.23628591e+03  2.68e-13 1.82e-12  1.02e-01     1s
   7   3.11322771e+02 -1.62726936e+03  2.44e-13 9.09e-13  4.21e-02     1s
   8   2.04220975e+02 -5.66333658e+02  2.50e-13 3.64e-12  1.67e-02     1s
   9   1.52821840e+02 -1.87969976e+02  3.37e-13 1.82e-12  7.40e-03     1s
  10   1.31237669e+02  2.06563241e+01  3.05e-13 1.82e-12  2.40e-03     1s
  11   1.11564581e+02  6.50235954e+01  6.96e-13 1.82e-12  1.01e-03     1s
  12   1.03366142e+02  7.62847663e+01  2.46e-11 1.82e-12  5.88e-04     1s
  13   1.00888150e+02  8.56376041e+01  1.94e-11 9.09e-13  3.31e-04     1s
  14   9.77875799e+01  8.61420189e+01  1.03e-11 1.82e-12  2.53e-04     1s
  15   9.67693582e+01  8.71040203e+01  8.51e-12 1.82e-12  2.10e-04     1s
  16   9.47239960e+01  9.00448176e+01  6.23e-12 1.82e-12  1.02e-04     1s
  17   9.28903592e+01  9.05193927e+01  4.45e-12 1.82e-12  5.15e-05     1s
  18   9.25690291e+01  9.07270222e+01  7.57e-12 9.09e-13  4.00e-05     1s
  19   9.21042340e+01  9.10949391e+01  7.39e-12 9.09e-13  2.19e-05     1s
  20   9.18940439e+01  9.13398603e+01  6.31e-12 1.82e-12  1.20e-05     1s
  21   9.17518548e+01  9.15744779e+01  2.85e-10 1.82e-12  3.85e-06     1s
  22   9.16560829e+01  9.15954964e+01  4.36e-10 1.82e-12  1.32e-06     1s
  23   9.16375025e+01  9.16028268e+01  5.79e-10 1.82e-12  7.53e-07     1s
  24   9.16262025e+01  9.16088938e+01  3.69e-09 1.82e-12  3.76e-07     1s
  25   9.16204917e+01  9.16152849e+01  3.96e-09 1.82e-12  1.13e-07     1s
  26   9.16184712e+01  9.16157411e+01  2.13e-09 1.82e-12  5.93e-08     1s
  27   9.16170250e+01  9.16159376e+01  8.35e-10 3.64e-12  2.36e-08     1s
  28   9.16161185e+01  9.16159903e+01  6.37e-10 1.82e-12  2.79e-09     1s
  29   9.16160507e+01  9.16160493e+01  6.46e-10 1.82e-12  3.05e-11     1s
  30   9.16160501e+01  9.16160501e+01  3.95e-10 3.64e-12  1.11e-15     1s

Barrier solved model in 30 iterations and 1.05 seconds (0.91 work units)
Optimal objective 9.16160501e+01


Root relaxation: objective 9.161605e+01, 1822 iterations, 0.74 seconds (0.44 work units)

    Nodes    |    Current Node    |     Objective Bounds      |     Work
 Expl Unexpl |  Obj  Depth IntInf | Incumbent    BestBd   Gap | It/Node Time

     0     0   91.61605    0   11  145.54926   91.61605  37.1%     -    1s
H    0     0                     116.9633229   91.61605  21.7%     -    1s
     0     0   95.35633    0    9  116.96332   95.35633  18.5%     -    2s
H    0     0                     102.7763010   95.35633  7.22%     -    2s
     0     0   95.69221    0   10  102.77630   95.69221  6.89%     -    2s
     0     0   95.69958    0   10  102.77630   95.69958  6.89%     -    3s
     0     0   95.69958    0   10  102.77630   95.69958  6.89%     -    3s
     0     0   96.12081    0   10  102.77630   96.12081  6.48%     -    3s
     0     0   96.20496    0   10  102.77630   96.20496  6.39%     -    3s
     0     0   96.21402    0   12  102.77630   96.21402  6.39%     -    3s
     0     0   96.21523    0   11  102.77630   96.21523  6.38%     -    3s
     0     0   96.21523    0   11  102.77630   96.21523  6.38%     -    3s
     0     0   96.22479    0   11  102.77630   96.22479  6.37%     -    4s
     0     0   96.24464    0   10  102.77630   96.24464  6.36%     -    4s
     0     0   96.26255    0    9  102.77630   96.26255  6.34%     -    4s
     0     0   96.26277    0    9  102.77630   96.26277  6.34%     -    4s
     0     0   96.26637    0   10  102.77630   96.26637  6.33%     -    5s
     0     2   96.26637    0   10  102.77630   96.26637  6.33%     -    9s
     3     6     cutoff    2       102.77630   96.31167  6.29%   950   10s
   108    49  102.28406    8    4  102.77630   98.95541  3.72%   362   20s
   144    59     cutoff    9       102.77630   99.48694  3.20%   336   29s
   180    84     cutoff   10       102.77630  100.07514  2.63%   316   30s
   305    52  101.72467   11    2  102.77630  100.37814  2.33%   274   36s
H  318    52                     102.7763009  100.37814  2.33%   268   36s

Cutting planes:
  Gomory: 4
  Implied bound: 135
  MIR: 730

Explored 470 nodes (113547 simplex iterations) in 36.64 seconds (45.03 work units)
Thread count was 36 (of 36 available processors)

Solution count 3: 102.776 116.963 145.549 

Optimal solution found (tolerance 1.00e-02)
Best objective 1.027763009380e+02, best bound 1.023852334885e+02, gap 0.3805%

Gurobi 9.5.0 (linux64) logging started Sat Nov  4 12:06:33 2023

Set parameter LogFile to value "/lustre1/scratch/348/vsc34888/JointResearch/05.Models/06.Benchmarking/E.Representative_days_based_on_Line_Benefits_OptModel/RTS24_ByStages_nc100/openStarNet_RTS24_ByStages_nc100.log"
Set parameter Method to value 2
Set parameter MIPFocus to value 1
Set parameter Presolve to value 2
Set parameter RINS to value 100
Set parameter MIPGap to value 0.01
Set parameter Threads to value 36
Set parameter TimeLimit to value 604800
Set parameter IterationLimit to value 760000000
No parameters matching 'relax_integrality' found
Gurobi Optimizer version 9.5.0 build v9.5.0rc5 (linux64)
Thread count: 36 physical cores, 36 logical processors, using up to 36 threads
Optimize a model with 44503 rows, 25149 columns and 105516 nonzeros
Model fingerprint: 0x4bd72391
Coefficient statistics:
  Matrix range     [1e-03, 2e+03]
  Objective range  [1e+00, 1e+00]
  Bounds range     [4e-04, 3e+00]
  RHS range        [4e-04, 2e+01]
Presolve removed 35305 rows and 11771 columns
Presolve time: 0.05s
Presolved: 9198 rows, 13578 columns, 33474 nonzeros

Ordering time: 0.00s

Barrier statistics:
 AA' NZ     : 2.371e+04
 Factor NZ  : 1.003e+05 (roughly 8 MB of memory)
 Factor Ops : 1.498e+06 (less than 1 second per iteration)
 Threads    : 36

                  Objective                Residual
Iter       Primal          Dual         Primal    Dual     Compl     Time
   0   1.12209700e+06 -2.73356766e+08  7.47e+00 8.85e+01  2.64e+04     0s
   1   1.22135266e+05 -4.71744799e+07  7.13e-01 5.90e-12  2.92e+03     0s
   2   2.95004844e+04 -5.73576919e+06  5.58e-02 4.70e-12  2.77e+02     0s
   3   1.34078425e+04 -8.14349988e+05  1.89e-03 2.95e-12  3.57e+01     0s
   4   4.73155469e+03 -1.61020317e+05  6.95e-05 9.09e-13  7.10e+00     0s
   5   1.78653333e+03 -3.34675688e+04  1.18e-05 9.09e-13  1.51e+00     0s
   6   7.21222451e+02 -7.26799275e+03  1.61e-06 9.09e-13  3.42e-01     0s
   7   3.96424883e+02 -2.64696719e+03  4.36e-07 9.09e-13  1.30e-01     0s
   8   2.36181513e+02 -9.57045294e+02  1.65e-07 9.09e-13  5.11e-02     0s
   9   1.59769067e+02 -1.88064394e+02  5.73e-08 9.09e-13  1.49e-02     0s
  10   1.14609127e+02  6.47220322e+01  7.23e-09 1.82e-12  2.14e-03     0s
  11   1.06802454e+02  9.09626280e+01  1.95e-09 9.09e-13  6.78e-04     0s
  12   1.04648753e+02  9.84144402e+01  7.97e-10 9.09e-13  2.67e-04     0s
  13   1.03547419e+02  1.01112428e+02  3.14e-10 9.09e-13  1.04e-04     0s
  14   1.03069617e+02  1.02348412e+02  1.17e-10 9.09e-13  3.09e-05     0s
  15   1.02868491e+02  1.02628729e+02  5.74e-11 1.82e-12  1.03e-05     0s
  16   1.02792924e+02  1.02771200e+02  1.30e-10 1.82e-12  9.30e-07     0s
  17   1.02776396e+02  1.02776160e+02  4.66e-10 9.09e-13  1.01e-08     0s
  18   1.02776301e+02  1.02776301e+02  1.96e-10 1.82e-12  1.01e-11     0s
  19   1.02776301e+02  1.02776301e+02  2.01e-11 9.09e-13  8.35e-17     0s

Barrier solved model in 19 iterations and 0.17 seconds (0.14 work units)
Optimal objective 1.02776301e+02

Crossover log...

    1000 DPushes remaining with DInf 0.0000000e+00                 0s
       0 DPushes remaining with DInf 0.0000000e+00                 0s

     744 PPushes remaining with PInf 0.0000000e+00                 0s
       0 PPushes remaining with PInf 0.0000000e+00                 0s

  Push phase complete: Pinf 0.0000000e+00, Dinf 5.4284875e-13      0s

Iteration    Objective       Primal Inf.    Dual Inf.      Time
     749    1.0277630e+02   0.000000e+00   0.000000e+00      0s

Use crossover to convert LP symmetric solution to basic solution...
Crossover log...

       0 DPushes remaining with DInf 0.0000000e+00                 0s

     367 PPushes remaining with PInf 0.0000000e+00                 0s
       0 PPushes remaining with PInf 0.0000000e+00                 0s

  Push phase complete: Pinf 0.0000000e+00, Dinf 6.6382793e-13      0s

Iteration    Objective       Primal Inf.    Dual Inf.      Time
    1121    1.0277630e+02   0.000000e+00   0.000000e+00      0s

Solved in 1121 iterations and 0.27 seconds (0.18 work units)
Optimal objective  1.027763010e+02

Gurobi 11.0.0 (linux64) logging started Wed Apr 10 22:22:31 2024

Set parameter LogFile to value "/lustre1/scratch/348/vsc34888/JointResearch/05.Models/06.Benchmarking/E.Representative_days_based_on_Line_Benefits_OptModel/RTS24_ByStages_nc100/openStarNet_RTS24_ByStages_nc100.log"
Set parameter Method to value 2
Set parameter MIPFocus to value 1
Set parameter Presolve to value 2
Set parameter RINS to value 100
Set parameter MIPGap to value 0.01
Set parameter Threads to value 36
Set parameter TimeLimit to value 259200
Set parameter IterationLimit to value 760000000
Gurobi Optimizer version 11.0.0 build v11.0.0rc2 (linux64 - "Rocky Linux 8.8 (Green Obsidian)")

CPU model: Intel(R) Xeon(R) Gold 6240 CPU @ 2.60GHz, instruction set [SSE2|AVX|AVX2|AVX512]
Thread count: 36 physical cores, 36 logical processors, using up to 36 threads

Optimize a model with 38903 rows, 23389 columns and 104176 nonzeros
Model fingerprint: 0x1f34cff4
Variable types: 23359 continuous, 30 integer (30 binary)
Coefficient statistics:
  Matrix range     [1e-03, 9e+02]
  Objective range  [1e+00, 1e+00]
  Bounds range     [4e-04, 3e+00]
  RHS range        [4e-04, 3e+00]
Presolve removed 20874 rows and 11034 columns
Presolve time: 0.15s
Presolved: 18029 rows, 12355 columns, 63554 nonzeros
Variable types: 12325 continuous, 30 integer (30 binary)
Found heuristic solution: objective 316.2859073
Root relaxation presolved: 18029 rows, 12355 columns, 63554 nonzeros

Root barrier log...

Ordering time: 0.01s

Barrier statistics:
 Dense cols : 30
 AA' NZ     : 1.334e+05
 Factor NZ  : 3.475e+05 (roughly 15 MB of memory)
 Factor Ops : 7.399e+06 (less than 1 second per iteration)
 Threads    : 36

                  Objective                Residual
Iter       Primal          Dual         Primal    Dual     Compl     Time
   0   8.17136491e+05 -1.84102973e+08  7.09e+00 2.11e+02  1.44e+04     0s
   1   1.45491411e+05 -5.45005825e+07  1.02e+00 9.44e-09  2.17e+03     0s
   2   4.98233591e+04 -8.39073067e+06  1.60e-01 6.85e-10  2.61e+02     0s
   3   2.98367944e+04 -5.86372563e+05  2.33e-03 8.39e-10  1.63e+01     0s
   4   1.13436484e+04 -8.21286080e+04  3.90e-05 9.47e-11  2.46e+00     0s
   5   3.99623796e+03 -2.08441763e+04  1.06e-05 2.13e-11  6.54e-01     0s
   6   1.70787305e+03 -9.43750288e+03  3.38e-06 9.43e-12  2.93e-01     0s
   7   7.43304288e+02 -2.27771091e+03  7.19e-07 1.98e-12  7.95e-02     0s
   8   4.74672270e+02 -3.89675091e+02  2.98e-07 1.82e-12  2.27e-02     0s
   9   3.39815789e+02 -5.87814368e+01  1.38e-07 1.82e-12  1.05e-02     0s
  10   2.79473843e+02  1.15398857e+02  8.28e-08 1.82e-12  4.32e-03     0s
  11   2.23979567e+02  1.60009613e+02  3.19e-08 1.82e-12  1.68e-03     0s
  12   2.00535777e+02  1.76075057e+02  1.09e-08 9.09e-13  6.44e-04     0s
  13   1.95098952e+02  1.79759644e+02  6.12e-09 9.09e-13  4.04e-04     0s
  14   1.92246869e+02  1.84372436e+02  3.68e-09 9.09e-13  2.07e-04     1s
  15   1.90537005e+02  1.85725438e+02  2.18e-09 9.09e-13  1.27e-04     1s
  16   1.89148828e+02  1.86826748e+02  8.74e-10 1.82e-12  6.11e-05     1s
  17   1.88946814e+02  1.86960144e+02  7.01e-10 9.09e-13  5.23e-05     1s
  18   1.88437991e+02  1.87744354e+02  2.74e-10 1.82e-12  1.82e-05     1s
  19   1.88225110e+02  1.87947994e+02  1.05e-10 1.82e-12  7.29e-06     1s
  20   1.88162483e+02  1.88021983e+02  5.47e-11 9.09e-13  3.70e-06     1s
  21   1.88116418e+02  1.88063247e+02  6.15e-11 1.82e-12  1.40e-06     1s
  22   1.88099443e+02  1.88087175e+02  3.28e-10 1.82e-12  3.23e-07     1s
  23   1.88093776e+02  1.88090280e+02  1.90e-10 1.82e-12  9.20e-08     1s
  24   1.88092464e+02  1.88091745e+02  2.43e-10 1.82e-12  1.89e-08     1s
  25   1.88092291e+02  1.88092197e+02  1.85e-09 1.82e-12  2.46e-09     1s
  26   1.88092240e+02  1.88092237e+02  5.75e-09 3.64e-12  7.03e-11     1s
  27   1.88092239e+02  1.88092238e+02  1.94e-08 1.82e-12  1.93e-12     1s

Barrier solved model in 27 iterations and 0.63 seconds (0.52 work units)
Optimal objective 1.88092239e+02


Root relaxation: objective 1.880922e+02, 2569 iterations, 0.46 seconds (0.33 work units)

    Nodes    |    Current Node    |     Objective Bounds      |     Work
 Expl Unexpl |  Obj  Depth IntInf | Incumbent    BestBd   Gap | It/Node Time

     0     0  188.09224    0   22  316.28591  188.09224  40.5%     -    1s
H    0     0                     256.3975155  191.34381  25.4%     -    1s
     0     0  191.34381    0   18  256.39752  191.34381  25.4%     -    1s
     0     0  191.48121    0   22  256.39752  191.48121  25.3%     -    2s
     0     0  191.49439    0   20  256.39752  191.49439  25.3%     -    2s
     0     0  191.49439    0   21  256.39752  191.49439  25.3%     -    2s
     0     0  192.12487    0   19  256.39752  192.12487  25.1%     -    3s
     0     0  192.19434    0   19  256.39752  192.19434  25.0%     -    3s
     0     0  192.20036    0   19  256.39752  192.20036  25.0%     -    3s
     0     0  192.20323    0   19  256.39752  192.20323  25.0%     -    3s
     0     0  192.20464    0   20  256.39752  192.20464  25.0%     -    3s
     0     0  192.20464    0   20  256.39752  192.20464  25.0%     -    3s
H    0     0                     249.3952266  192.20464  22.9%     -    4s
     0     0  192.31720    0   18  249.39523  192.31720  22.9%     -    4s
     0     0  192.31983    0   18  249.39523  192.31983  22.9%     -    4s
     0     0  192.31996    0   18  249.39523  192.31996  22.9%     -    4s
     0     0  192.33422    0   18  249.39523  192.33422  22.9%     -    4s
     0     0  192.33668    0   18  249.39523  192.33668  22.9%     -    4s
     0     0  192.33668    0   18  249.39523  192.33668  22.9%     -    5s
     0     0  192.39452    0   17  249.39523  192.39452  22.9%     -    6s
H    0     0                     245.3433268  192.39452  21.6%     -    6s
H    0     0                     224.1597994  192.39452  14.2%     -   48s
     0     2  192.39452    0   17  224.15980  192.39452  14.2%     -   49s
     3     8  192.51982    2   18  224.15980  192.51982  14.1%   979   50s
H   99   132                     223.3089500  198.11385  11.3%   908  102s
H  105   132                     221.4044393  198.11385  10.5%   885  102s
H  107   132                     221.1284911  198.11385  10.4%   879  102s
H  118   132                     220.7826115  198.11385  10.3%   852  102s
   374   348  213.38391   11   13  220.78261  198.11385  10.3%   663  105s
  1052   537     cutoff   15       220.78261  200.00564  9.41%   545  110s
  1371   588  212.35003   13   10  220.78261  200.00564  9.41%   508  144s
  1583   625  219.26419   14    9  220.78261  200.79380  9.05%   495  146s
  2652   730     cutoff   14       220.78261  203.52227  7.82%   452  150s
  2895   789  209.12540   12   11  220.78261  203.95331  7.62%   439  187s
  3391   874  208.16560   11   12  220.78261  207.77499  5.89%   424  228s
H 3425   874                     220.7272542  207.77499  5.87%   423  228s
  3698   910  218.60452   16    7  220.72725  207.77499  5.87%   413  281s
  4797   957  217.21739    8   12  220.72725  208.75618  5.42%   390  336s
  6111  1217  216.55076   16    7  220.72725  211.49183  4.18%   369  340s
  8068  1360  218.31076   11   10  220.72725  212.90853  3.54%   342  367s
  9583  1465  220.65315   16    7  220.72725  213.92808  3.08%   326  400s
 12488  1616     cutoff   13       220.72725  215.52783  2.36%   301  438s
 13209  1684  218.13014   15    8  220.72725  215.87742  2.20%   296  440s
 14568  1700  219.10464   14    8  220.72725  216.26842  2.02%   288  474s
 15833  1577  220.49706   21    4  220.72725  216.73795  1.81%   281  477s
 17528  1391     cutoff   19       220.72725  217.18947  1.60%   274  480s
 21142     0     cutoff   15       220.72725  218.42708  1.04%   257  485s

Cutting planes:
  Learned: 7
  Gomory: 1
  Implied bound: 232
  MIR: 779
  Relax-and-lift: 19

Explored 22518 nodes (5589625 simplex iterations) in 485.06 seconds (608.45 work units)
Thread count was 36 (of 36 available processors)

Solution count 10: 220.727 220.783 221.128 ... 316.286

Optimal solution found (tolerance 1.00e-02)
Best objective 2.207272542167e+02, best bound 2.207272542167e+02, gap 0.0000%

Gurobi 11.0.0 (linux64) logging started Wed Apr 10 22:30:42 2024

Set parameter LogFile to value "/lustre1/scratch/348/vsc34888/JointResearch/05.Models/06.Benchmarking/E.Representative_days_based_on_Line_Benefits_OptModel/RTS24_ByStages_nc100/openStarNet_RTS24_ByStages_nc100.log"
Set parameter Method to value 2
Set parameter MIPFocus to value 1
Set parameter Presolve to value 2
Set parameter RINS to value 100
Set parameter MIPGap to value 0.01
Set parameter Threads to value 36
Set parameter TimeLimit to value 259200
Set parameter IterationLimit to value 760000000
Gurobi Optimizer version 11.0.0 build v11.0.0rc2 (linux64 - "Rocky Linux 8.8 (Green Obsidian)")

CPU model: Intel(R) Xeon(R) Gold 6240 CPU @ 2.60GHz, instruction set [SSE2|AVX|AVX2|AVX512]
Thread count: 36 physical cores, 36 logical processors, using up to 36 threads

Optimize a model with 38903 rows, 23359 columns and 92146 nonzeros
Model fingerprint: 0x96855a04
Coefficient statistics:
  Matrix range     [1e-03, 9e+02]
  Objective range  [1e+00, 1e+00]
  Bounds range     [4e-04, 3e+00]
  RHS range        [4e-04, 5e+01]
Presolve removed 33205 rows and 13601 columns
Presolve time: 0.05s
Presolved: 5698 rows, 9893 columns, 25860 nonzeros

Ordering time: 0.00s

Barrier statistics:
 AA' NZ     : 1.476e+04
 Factor NZ  : 4.765e+04 (roughly 5 MB of memory)
 Factor Ops : 6.569e+05 (less than 1 second per iteration)
 Threads    : 1

                  Objective                Residual
Iter       Primal          Dual         Primal    Dual     Compl     Time
   0   4.29843807e+06 -1.19225314e+08  1.55e+01 2.25e+03  1.13e+05     0s
   1   2.77561902e+05 -9.59459858e+07  8.97e-01 4.70e-11  1.14e+04     0s
   2   7.70865863e+04 -2.68085181e+07  1.86e-01 1.68e-10  2.19e+03     0s
   3   4.13421617e+04 -5.49991487e+06  3.64e-02 6.15e-11  3.83e+02     0s
   4   3.12586909e+04 -3.50710886e+05  2.25e-03 3.56e-11  2.43e+01     0s
   5   1.79934022e+04 -1.10388354e+05  3.19e-04 3.43e-10  8.09e+00     0s
   6   7.49496142e+03 -3.62329849e+04  6.68e-05 1.46e-11  2.75e+00     0s
   7   1.37818408e+03 -9.47262259e+03  3.17e-06 7.28e-12  6.83e-01     0s
   8   5.87240724e+02 -2.23262143e+03  1.38e-07 7.28e-12  1.78e-01     0s
   9   3.93771131e+02 -4.72476278e+02  1.99e-08 7.28e-12  5.45e-02     0s
  10   3.25769430e+02 -1.25713165e+02  9.85e-09 1.46e-11  2.84e-02     0s
  11   2.84328118e+02  4.79622577e+01  5.29e-09 7.28e-12  1.49e-02     0s
  12   2.54488068e+02  1.29173248e+02  2.61e-09 7.28e-12  7.89e-03     0s
  13   2.35902168e+02  2.03224106e+02  1.08e-09 7.28e-12  2.06e-03     0s
  14   2.23630192e+02  2.17764031e+02  1.68e-10 7.28e-12  3.69e-04     0s
  15   2.21504020e+02  2.19767041e+02  4.12e-11 7.28e-12  1.09e-04     0s
  16   2.21111159e+02  2.20302031e+02  4.14e-11 7.28e-12  5.09e-05     0s
  17   2.20833474e+02  2.20623636e+02  4.83e-11 7.28e-12  1.32e-05     0s
  18   2.20735378e+02  2.20707649e+02  1.15e-10 1.46e-11  1.75e-06     0s
  19   2.20728840e+02  2.20724839e+02  4.29e-11 7.28e-12  2.52e-07     0s
  20   2.20727263e+02  2.20727089e+02  2.25e-11 1.46e-11  1.09e-08     0s
  21   2.20727255e+02  2.20727253e+02  1.96e-11 3.64e-12  1.16e-10     0s
  22   2.20727254e+02  2.20727254e+02  4.96e-12 1.46e-11  1.16e-13     0s

Barrier solved model in 22 iterations and 0.12 seconds (0.12 work units)
Optimal objective 2.20727254e+02

Crossover log...

    1092 DPushes remaining with DInf 0.0000000e+00                 0s
       0 DPushes remaining with DInf 0.0000000e+00                 0s

     346 PPushes remaining with PInf 0.0000000e+00                 0s
       0 PPushes remaining with PInf 0.0000000e+00                 0s

  Push phase complete: Pinf 0.0000000e+00, Dinf 1.3690019e-12      0s

Iteration    Objective       Primal Inf.    Dual Inf.      Time
     383    2.2072725e+02   0.000000e+00   0.000000e+00      0s

Use crossover to convert LP symmetric solution to basic solution...
Crossover log...

       0 DPushes remaining with DInf 0.0000000e+00                 0s

     202 PPushes remaining with PInf 0.0000000e+00                 0s
       0 PPushes remaining with PInf 0.0000000e+00                 0s

  Push phase complete: Pinf 0.0000000e+00, Dinf 1.6786327e-12      0s

Iteration    Objective       Primal Inf.    Dual Inf.      Time
     595    2.2072725e+02   0.000000e+00   0.000000e+00      0s

Solved in 595 iterations and 0.17 seconds (0.15 work units)
Optimal objective  2.207272542e+02
